%nprocs=1
# external="xtb-gaussian -P 4"
  opt=(calcall,nomicro,recalcfc=5,ts,noeigentest,tight,maxcycle=500,maxstep=1)

Simple test

0 1                                                                   
O       -1.787410000      0.552302000      0.322689000
O        0.552830000      1.787621000     -0.323144000
O       -0.551533000     -1.787335000     -0.322943000
O        1.787874000     -0.551994000      0.323475000
H       -1.468156000     -0.341325000      0.072989000
H       -0.340189000      1.470025000     -0.069466000
H        1.470403000      0.341689000      0.071604000
H        0.342918000     -1.468797000     -0.075037000
H       -2.040131000      0.493529000      1.246454000
H        0.492960000      2.028869000     -1.249938000
H        2.024982000     -0.495290000      1.251552000
H       -0.496882000     -2.033446000     -1.248774000





